400
750
525
524
522
522
521
520
520
520
519
519
518
515
513
513
513
512
511
509
507
506
506
503
503
501
500
497
497
496
496
493
492
491
491
484
484
483
483
481
480
480
479
479
478
478
477
476
476
476
475
475
472
472
471
471
471
471
471
470
469
469
469
468
468
466
466
465
463
462
460
459
457
457
457
457
456
456
454
452
451
451
451
449
448
446
444
444
443
442
441
441
440
439
438
437
437
436
436
435
435
434
431
430
430
429
428
427
426
424
424
424
424
423
421
418
418
416
416
414
414
412
411
411
409
409
408
407
403
402
400
399
399
399
399
399
398
398
398
395
394
393
392
392
392
391
389
388
388
387
384
382
382
381
381
381
380
380
380
379
379
379
379
377
376
376
376
375
375
374
373
372
372
371
370
370
369
368
368
366
366
365
365
365
364
362
362
362
361
357
357
357
356
354
352
351
350
349
349
347
346
344
343
339
338
336
335
334
331
330
329
329
329
323
323
322
321
321
319
318
315
311
311
310
310
310
309
309
308
306
304
304
304
304
303
303
301
301
299
299
298
297
297
297
293
290
287
287
285
285
285
284
283
283
282
282
282
282
282
282
281
278
273
272
272
271
271
271
270
269
267
266
266
266
266
264
263
259
258
257
256
255
254
253
253
250
250
250
249
249
248
246
246
244
243
242
241
241
239
237
237
236
233
232
232
232
232
231
230
229
229
229
228
227
227
223
222
221
221
219
219
217
217
217
213
211
210
210
208
208
208
208
207
207
204
202
200
200
200
199
198
197
197
197
197
196
195
195
195
189
188
188
186
185
183
182
181
180
180
179
179
175
175
175
174
173
173
173
172
170
170
169
169
168
166
166
165
165
164
164
164
163
163
162
162
162
161
159
159
157
157
156
156
155
154
154
153
153
151
151
151
150
